(set-info :source |printed by MathSAT|)
(declare-fun call__DRAGON_.dirty () Int)
(declare-fun shared () Int)
(declare-fun _OK_ () Bool)
(declare-fun call__DRAGON_.ite () Bool)
(declare-fun call__DRAGON_.ite57 () Int)
(declare-fun call__DRAGON_.ite19 () Int)
(declare-fun call__DRAGON_.ite60 () Int)
(declare-fun call_First.flby () Int)
(declare-fun param_e12 () Bool)
(declare-fun call__DRAGON_.g06 () Bool)
(declare-fun call__DRAGON_.ite52 () Int)
(declare-fun call__DRAGON_.ite4 () Int)
(declare-fun call__DRAGON_.ite30 () Int)
(declare-fun call__DRAGON_.ite17 () Int)
(declare-fun call__DRAGON_.ite18 () Int)
(declare-fun call__DRAGON_.ite44 () Int)
(declare-fun param_e10 () Bool)
(declare-fun call__DRAGON_.invalid () Int)
(declare-fun call__DRAGON_.g04 () Bool)
(declare-fun call__DRAGON_.ite12 () Int)
(declare-fun call__DRAGON_.ite40 () Int)
(declare-fun param_e08 () Bool)
(declare-fun call__DRAGON_.ite20 () Int)
(declare-fun call__DRAGON_.ite24 () Int)
(declare-fun param_e06 () Bool)
(declare-fun call__DRAGON_.ite10 () Int)
(declare-fun env () Bool)
(declare-fun call__DRAGON_.ite27 () Int)
(declare-fun call__DRAGON_.ite41 () Int)
(declare-fun param_e01 () Bool)
(declare-fun param_e11 () Bool)
(declare-fun call__DRAGON_.ite56 () Int)
(declare-fun erreur () Bool)
(declare-fun call__DRAGON_.flby5 () Int)
(declare-fun call__DRAGON_.ite37 () Int)
(declare-fun call__DRAGON_.flby2 () Int)
(declare-fun param_e04 () Bool)
(declare-fun call__DRAGON_.ite16 () Int)
(declare-fun call__DRAGON_.erreur () Bool)
(declare-fun call__DRAGON_.ite22 () Int)
(declare-fun param_e02 () Bool)
(declare-fun invalid () Int)
(declare-fun call__DRAGON_.flby () Int)
(declare-fun call__DRAGON_.ite58 () Int)
(declare-fun param_e07 () Bool)
(declare-fun call__DRAGON_.ite55 () Int)
(declare-fun call__DRAGON_.ite8 () Int)
(declare-fun call__DRAGON_.ite3 () Int)
(declare-fun call__DRAGON_.ite5 () Int)
(declare-fun shared_dirty () Int)
(declare-fun call__DRAGON_.ite2 () Int)
(declare-fun call__DRAGON_.ite21 () Int)
(declare-fun param_init_invalid () Int)
(declare-fun call__DRAGON_.ite26 () Int)
(declare-fun call__DRAGON_.mem_init () Int)
(declare-fun call__DRAGON_.ite33 () Int)
(declare-fun call__DRAGON_.ite42 () Int)
(declare-fun call__DRAGON_.ite54 () Int)
(declare-fun call__DRAGON_.ite48 () Int)
(declare-fun call__DRAGON_.g02 () Bool)
(declare-fun call__DRAGON_.ite35 () Int)
(declare-fun call__DRAGON_.ite31 () Int)
(declare-fun call__DRAGON_.shared () Int)
(declare-fun call_excludes12.excludes () Bool)
(declare-fun call__DRAGON_.flby4 () Int)
(declare-fun param_e03 () Bool)
(declare-fun call__DRAGON_.ite9 () Int)
(declare-fun call__DRAGON_.ite28 () Int)
(declare-fun call__DRAGON_.ite34 () Int)
(declare-fun call_Sofar.flby () Bool)
(declare-fun call__DRAGON_.ite11 () Int)
(declare-fun param_e05 () Bool)
(declare-fun param_e09 () Bool)
(declare-fun call__DRAGON_.ite14 () Int)
(declare-fun call__DRAGON_.ite32 () Int)
(declare-fun call__DRAGON_.ite50 () Int)
(declare-fun call__DRAGON_.ite49 () Int)
(declare-fun call_First.First () Int)
(declare-fun call__DRAGON_.flby3 () Int)
(declare-fun call__DRAGON_.ite53 () Int)
(declare-fun call__DRAGON_.ite46 () Int)
(declare-fun call__DRAGON_.flby6 () Int)
(declare-fun call__DRAGON_.ite15 () Int)
(declare-fun call__DRAGON_.ite23 () Int)
(declare-fun call__DRAGON_.ite13 () Int)
(declare-fun call_Sofar.Sofar () Bool)
(declare-fun call__DRAGON_.ite38 () Int)
(declare-fun call__DRAGON_.ite59 () Int)
(declare-fun call__DRAGON_.g05 () Bool)
(declare-fun call__DRAGON_.ite61 () Int)
(declare-fun call__DRAGON_.ite43 () Int)
(declare-fun call__DRAGON_.ite39 () Int)
(declare-fun call__DRAGON_.ite51 () Int)
(declare-fun call__DRAGON_.ite25 () Int)
(declare-fun call__DRAGON_.g08 () Bool)
(declare-fun call__DRAGON_.ite36 () Int)
(declare-fun call__DRAGON_.exclusive () Int)
(declare-fun call__DRAGON_.ite6 () Int)
(declare-fun call__DRAGON_.ite45 () Int)
(declare-fun dirty () Int)
(declare-fun call__DRAGON_.ite7 () Int)
(declare-fun exclusive () Int)
(declare-fun call__DRAGON_.ite29 () Int)
(declare-fun call__DRAGON_.ite47 () Int)
(declare-fun call__DRAGON_.shared_dirty () Int)
(define-fun .def_1793 () Bool (= call_First.flby call_First.First))
(define-fun .def_1791 () Bool (= call_Sofar.flby call_Sofar.Sofar))
(define-fun .def_1600 () Bool (not param_e02))
(define-fun .def_1581 () Bool (not param_e01))
(define-fun .def_1689 () Bool (and .def_1581 .def_1600))
(define-fun .def_1641 () Bool (not param_e03))
(define-fun .def_1690 () Bool (and .def_1641 .def_1689))
(define-fun .def_1657 () Bool (not param_e04))
(define-fun .def_1691 () Bool (and .def_1657 .def_1690))
(define-fun .def_1434 () Bool (not param_e05))
(define-fun .def_1692 () Bool (and .def_1434 .def_1691))
(define-fun .def_1416 () Bool (not param_e06))
(define-fun .def_1693 () Bool (and .def_1416 .def_1692))
(define-fun .def_1451 () Bool (not param_e07))
(define-fun .def_1694 () Bool (and .def_1451 .def_1693))
(define-fun .def_1470 () Bool (not param_e08))
(define-fun .def_1695 () Bool (and .def_1470 .def_1694))
(define-fun .def_1309 () Bool (not param_e09))
(define-fun .def_1696 () Bool (and .def_1309 .def_1695))
(define-fun .def_1315 () Bool (not param_e10))
(define-fun .def_1697 () Bool (and .def_1315 .def_1696))
(define-fun .def_1322 () Bool (not param_e11))
(define-fun .def_1698 () Bool (and .def_1322 .def_1697))
(define-fun .def_1329 () Bool (not param_e12))
(define-fun .def_1776 () Bool (and .def_1329 .def_1698))
(define-fun .def_1765 () Bool (and param_e01 .def_1600))
(define-fun .def_1766 () Bool (and .def_1641 .def_1765))
(define-fun .def_1767 () Bool (and .def_1657 .def_1766))
(define-fun .def_1768 () Bool (and .def_1434 .def_1767))
(define-fun .def_1769 () Bool (and .def_1416 .def_1768))
(define-fun .def_1770 () Bool (and .def_1451 .def_1769))
(define-fun .def_1771 () Bool (and .def_1470 .def_1770))
(define-fun .def_1772 () Bool (and .def_1309 .def_1771))
(define-fun .def_1773 () Bool (and .def_1315 .def_1772))
(define-fun .def_1774 () Bool (and .def_1322 .def_1773))
(define-fun .def_1775 () Bool (and .def_1329 .def_1774))
(define-fun .def_1777 () Bool (or .def_1775 .def_1776))
(define-fun .def_1754 () Bool (and .def_1581 param_e02))
(define-fun .def_1755 () Bool (and .def_1641 .def_1754))
(define-fun .def_1756 () Bool (and .def_1657 .def_1755))
(define-fun .def_1757 () Bool (and .def_1434 .def_1756))
(define-fun .def_1758 () Bool (and .def_1416 .def_1757))
(define-fun .def_1759 () Bool (and .def_1451 .def_1758))
(define-fun .def_1760 () Bool (and .def_1470 .def_1759))
(define-fun .def_1761 () Bool (and .def_1309 .def_1760))
(define-fun .def_1762 () Bool (and .def_1315 .def_1761))
(define-fun .def_1763 () Bool (and .def_1322 .def_1762))
(define-fun .def_1764 () Bool (and .def_1329 .def_1763))
(define-fun .def_1778 () Bool (or .def_1764 .def_1777))
(define-fun .def_1744 () Bool (and param_e03 .def_1689))
(define-fun .def_1745 () Bool (and .def_1657 .def_1744))
(define-fun .def_1746 () Bool (and .def_1434 .def_1745))
(define-fun .def_1747 () Bool (and .def_1416 .def_1746))
(define-fun .def_1748 () Bool (and .def_1451 .def_1747))
(define-fun .def_1749 () Bool (and .def_1470 .def_1748))
(define-fun .def_1750 () Bool (and .def_1309 .def_1749))
(define-fun .def_1751 () Bool (and .def_1315 .def_1750))
(define-fun .def_1752 () Bool (and .def_1322 .def_1751))
(define-fun .def_1753 () Bool (and .def_1329 .def_1752))
(define-fun .def_1779 () Bool (or .def_1753 .def_1778))
(define-fun .def_1735 () Bool (and param_e04 .def_1690))
(define-fun .def_1736 () Bool (and .def_1434 .def_1735))
(define-fun .def_1737 () Bool (and .def_1416 .def_1736))
(define-fun .def_1738 () Bool (and .def_1451 .def_1737))
(define-fun .def_1739 () Bool (and .def_1470 .def_1738))
(define-fun .def_1740 () Bool (and .def_1309 .def_1739))
(define-fun .def_1741 () Bool (and .def_1315 .def_1740))
(define-fun .def_1742 () Bool (and .def_1322 .def_1741))
(define-fun .def_1743 () Bool (and .def_1329 .def_1742))
(define-fun .def_1780 () Bool (or .def_1743 .def_1779))
(define-fun .def_1727 () Bool (and param_e05 .def_1691))
(define-fun .def_1728 () Bool (and .def_1416 .def_1727))
(define-fun .def_1729 () Bool (and .def_1451 .def_1728))
(define-fun .def_1730 () Bool (and .def_1470 .def_1729))
(define-fun .def_1731 () Bool (and .def_1309 .def_1730))
(define-fun .def_1732 () Bool (and .def_1315 .def_1731))
(define-fun .def_1733 () Bool (and .def_1322 .def_1732))
(define-fun .def_1734 () Bool (and .def_1329 .def_1733))
(define-fun .def_1781 () Bool (or .def_1734 .def_1780))
(define-fun .def_1720 () Bool (and param_e06 .def_1692))
(define-fun .def_1721 () Bool (and .def_1451 .def_1720))
(define-fun .def_1722 () Bool (and .def_1470 .def_1721))
(define-fun .def_1723 () Bool (and .def_1309 .def_1722))
(define-fun .def_1724 () Bool (and .def_1315 .def_1723))
(define-fun .def_1725 () Bool (and .def_1322 .def_1724))
(define-fun .def_1726 () Bool (and .def_1329 .def_1725))
(define-fun .def_1782 () Bool (or .def_1726 .def_1781))
(define-fun .def_1714 () Bool (and param_e07 .def_1693))
(define-fun .def_1715 () Bool (and .def_1470 .def_1714))
(define-fun .def_1716 () Bool (and .def_1309 .def_1715))
(define-fun .def_1717 () Bool (and .def_1315 .def_1716))
(define-fun .def_1718 () Bool (and .def_1322 .def_1717))
(define-fun .def_1719 () Bool (and .def_1329 .def_1718))
(define-fun .def_1783 () Bool (or .def_1719 .def_1782))
(define-fun .def_1709 () Bool (and param_e08 .def_1694))
(define-fun .def_1710 () Bool (and .def_1309 .def_1709))
(define-fun .def_1711 () Bool (and .def_1315 .def_1710))
(define-fun .def_1712 () Bool (and .def_1322 .def_1711))
(define-fun .def_1713 () Bool (and .def_1329 .def_1712))
(define-fun .def_1784 () Bool (or .def_1713 .def_1783))
(define-fun .def_1705 () Bool (and param_e09 .def_1695))
(define-fun .def_1706 () Bool (and .def_1315 .def_1705))
(define-fun .def_1707 () Bool (and .def_1322 .def_1706))
(define-fun .def_1708 () Bool (and .def_1329 .def_1707))
(define-fun .def_1785 () Bool (or .def_1708 .def_1784))
(define-fun .def_1702 () Bool (and param_e10 .def_1696))
(define-fun .def_1703 () Bool (and .def_1322 .def_1702))
(define-fun .def_1704 () Bool (and .def_1329 .def_1703))
(define-fun .def_1786 () Bool (or .def_1704 .def_1785))
(define-fun .def_1700 () Bool (and param_e11 .def_1697))
(define-fun .def_1701 () Bool (and .def_1329 .def_1700))
(define-fun .def_1787 () Bool (or .def_1701 .def_1786))
(define-fun .def_1699 () Bool (and param_e12 .def_1698))
(define-fun .def_1788 () Bool (or .def_1699 .def_1787))
(define-fun .def_1789 () Bool (= call_excludes12.excludes .def_1788))
(define-fun .def_1687 () Bool (= call__DRAGON_.mem_init call__DRAGON_.flby))
(define-fun .def_1685 () Bool (= call__DRAGON_.erreur call__DRAGON_.ite))
(define-fun .def_1683 () Bool (= call__DRAGON_.flby6 call__DRAGON_.invalid))
(define-fun .def_1681 () Bool (= call__DRAGON_.flby5 call__DRAGON_.dirty))
(define-fun .def_1679 () Bool (= call__DRAGON_.flby4 call__DRAGON_.shared_dirty))
(define-fun .def_1677 () Bool (= call__DRAGON_.flby3 call__DRAGON_.shared))
(define-fun .def_1674 () Bool (= call__DRAGON_.flby2 call__DRAGON_.exclusive))
(define-fun .def_1669 () Bool (<= 2 call__DRAGON_.exclusive))
(define-fun .def_1671 () Bool (not .def_1669))
(define-fun .def_1672 () Bool (or call__DRAGON_.ite .def_1671))
(define-fun .def_1668 () Bool (not call__DRAGON_.ite))
(define-fun .def_1670 () Bool (or .def_1668 .def_1669))
(define-fun .def_1673 () Bool (and .def_1670 .def_1672))
(define-fun .def_1675 () Bool (and .def_1673 .def_1674))
(define-fun .def_1663 () Bool (= call__DRAGON_.ite29 call__DRAGON_.ite30))
(define-fun .def_1664 () Bool (or param_e04 .def_1663))
(define-fun .def_1660 () Bool (= call__DRAGON_.ite23 call__DRAGON_.ite30))
(define-fun .def_1661 () Bool (or .def_1657 .def_1660))
(define-fun .def_1656 () Bool (= call__DRAGON_.ite43 call__DRAGON_.ite34))
(define-fun .def_1658 () Bool (or .def_1656 .def_1657))
(define-fun .def_1652 () Bool (= call__DRAGON_.ite42 call__DRAGON_.ite43))
(define-fun .def_1654 () Bool (or .def_1652 param_e04))
(define-fun .def_1659 () Bool (and .def_1654 .def_1658))
(define-fun .def_1662 () Bool (and .def_1659 .def_1661))
(define-fun .def_1665 () Bool (and .def_1662 .def_1664))
(define-fun .def_1648 () Bool (= call__DRAGON_.ite8 call__DRAGON_.ite9))
(define-fun .def_1649 () Bool (or param_e03 .def_1648))
(define-fun .def_1645 () Bool (= call__DRAGON_.ite9 call__DRAGON_.ite4))
(define-fun .def_1646 () Bool (or .def_1641 .def_1645))
(define-fun .def_1640 () Bool (= call__DRAGON_.ite44 call__DRAGON_.ite33))
(define-fun .def_1642 () Bool (or .def_1640 .def_1641))
(define-fun .def_1636 () Bool (= call__DRAGON_.ite44 call__DRAGON_.ite43))
(define-fun .def_1638 () Bool (or .def_1636 param_e03))
(define-fun .def_1643 () Bool (and .def_1638 .def_1642))
(define-fun .def_1647 () Bool (and .def_1643 .def_1646))
(define-fun .def_1650 () Bool (and .def_1647 .def_1649))
(define-fun .def_1631 () Bool (= call__DRAGON_.ite31 call__DRAGON_.ite30))
(define-fun .def_1632 () Bool (or param_e02 .def_1631))
(define-fun .def_1627 () Bool (= call__DRAGON_.ite22 call__DRAGON_.ite31))
(define-fun .def_1628 () Bool (or .def_1600 .def_1627))
(define-fun .def_1622 () Bool (= call__DRAGON_.ite20 call__DRAGON_.ite21))
(define-fun .def_1623 () Bool (or param_e02 .def_1622))
(define-fun .def_1619 () Bool (= call__DRAGON_.ite12 call__DRAGON_.ite21))
(define-fun .def_1620 () Bool (or .def_1600 .def_1619))
(define-fun .def_1614 () Bool (= call__DRAGON_.ite10 call__DRAGON_.ite9))
(define-fun .def_1615 () Bool (or param_e02 .def_1614))
(define-fun .def_1610 () Bool (= call__DRAGON_.ite3 call__DRAGON_.ite10))
(define-fun .def_1611 () Bool (or .def_1600 .def_1610))
(define-fun .def_1607 () Bool (= call__DRAGON_.ite59 call__DRAGON_.ite60))
(define-fun .def_1608 () Bool (or param_e02 .def_1607))
(define-fun .def_1604 () Bool (= call__DRAGON_.ite60 call__DRAGON_.ite47))
(define-fun .def_1605 () Bool (or .def_1600 .def_1604))
(define-fun .def_1599 () Bool (= call__DRAGON_.ite32 call__DRAGON_.ite45))
(define-fun .def_1601 () Bool (or .def_1599 .def_1600))
(define-fun .def_1596 () Bool (= call__DRAGON_.ite45 call__DRAGON_.ite44))
(define-fun .def_1598 () Bool (or .def_1596 param_e02))
(define-fun .def_1602 () Bool (and .def_1598 .def_1601))
(define-fun .def_1606 () Bool (and .def_1602 .def_1605))
(define-fun .def_1609 () Bool (and .def_1606 .def_1608))
(define-fun .def_1612 () Bool (and .def_1609 .def_1611))
(define-fun .def_1616 () Bool (and .def_1612 .def_1615))
(define-fun .def_1621 () Bool (and .def_1616 .def_1620))
(define-fun .def_1624 () Bool (and .def_1621 .def_1623))
(define-fun .def_1629 () Bool (and .def_1624 .def_1628))
(define-fun .def_1633 () Bool (and .def_1629 .def_1632))
(define-fun .def_1590 () Bool (= call__DRAGON_.ite11 call__DRAGON_.ite10))
(define-fun .def_1591 () Bool (or param_e01 .def_1590))
(define-fun .def_1586 () Bool (= call__DRAGON_.ite2 call__DRAGON_.ite11))
(define-fun .def_1587 () Bool (or .def_1581 .def_1586))
(define-fun .def_1580 () Bool (= call__DRAGON_.ite61 call__DRAGON_.ite46))
(define-fun .def_1582 () Bool (or .def_1580 .def_1581))
(define-fun .def_1576 () Bool (= call__DRAGON_.ite61 call__DRAGON_.ite60))
(define-fun .def_1578 () Bool (or .def_1576 param_e01))
(define-fun .def_1583 () Bool (and .def_1578 .def_1582))
(define-fun .def_1588 () Bool (and .def_1583 .def_1587))
(define-fun .def_1592 () Bool (and .def_1588 .def_1591))
(define-fun .def_1570 () Bool (= call__DRAGON_.ite55 call__DRAGON_.ite52))
(define-fun .def_1571 () Bool (or .def_1322 .def_1570))
(define-fun .def_1567 () Bool (= call__DRAGON_.ite54 call__DRAGON_.ite55))
(define-fun .def_1568 () Bool (or param_e11 .def_1567))
(define-fun .def_1572 () Bool (and .def_1568 .def_1571))
(define-fun .def_1563 () Bool (= call__DRAGON_.ite56 call__DRAGON_.ite51))
(define-fun .def_1564 () Bool (or .def_1315 .def_1563))
(define-fun .def_1560 () Bool (= call__DRAGON_.ite56 call__DRAGON_.ite55))
(define-fun .def_1561 () Bool (or param_e10 .def_1560))
(define-fun .def_1565 () Bool (and .def_1561 .def_1564))
(define-fun .def_1555 () Bool (= call__DRAGON_.ite57 call__DRAGON_.ite50))
(define-fun .def_1556 () Bool (or .def_1309 .def_1555))
(define-fun .def_1552 () Bool (= call__DRAGON_.ite57 call__DRAGON_.ite56))
(define-fun .def_1553 () Bool (or param_e09 .def_1552))
(define-fun .def_1557 () Bool (and .def_1553 .def_1556))
(define-fun .def_1549 () Bool (= env call_Sofar.Sofar))
(define-fun .def_1546 () Bool (= erreur call__DRAGON_.erreur))
(define-fun .def_1542 () Bool (= invalid call__DRAGON_.invalid))
(define-fun .def_1539 () Bool (= dirty call__DRAGON_.dirty))
(define-fun .def_1536 () Bool (= shared_dirty call__DRAGON_.shared_dirty))
(define-fun .def_1533 () Bool (= shared call__DRAGON_.shared))
(define-fun .def_1530 () Bool (= exclusive call__DRAGON_.exclusive))
(define-fun .def_1519 () Int (* (- 1) call_First.First))
(define-fun .def_1520 () Int (+ invalid .def_1519))
(define-fun .def_1521 () Int (+ dirty .def_1520))
(define-fun .def_1522 () Int (+ shared_dirty .def_1521))
(define-fun .def_1523 () Int (+ shared .def_1522))
(define-fun .def_1524 () Int (+ exclusive .def_1523))
(define-fun .def_1525 () Bool (= .def_1524 0))
(define-fun .def_1502 () Bool (not env))
(define-fun .def_1526 () Bool (or .def_1502 .def_1525))
(define-fun .def_1527 () Bool (= _OK_ .def_1526))
(define-fun .def_1496 () Bool (= call__DRAGON_.ite39 call__DRAGON_.ite40))
(define-fun .def_1497 () Bool (or param_e08 .def_1496))
(define-fun .def_1493 () Bool (= call__DRAGON_.ite37 call__DRAGON_.ite40))
(define-fun .def_1494 () Bool (or .def_1470 .def_1493))
(define-fun .def_1490 () Bool (= call__DRAGON_.ite27 call__DRAGON_.ite28))
(define-fun .def_1491 () Bool (or param_e08 .def_1490))
(define-fun .def_1487 () Bool (= call__DRAGON_.ite25 call__DRAGON_.ite28))
(define-fun .def_1488 () Bool (or .def_1470 .def_1487))
(define-fun .def_1484 () Bool (= call__DRAGON_.ite17 call__DRAGON_.ite18))
(define-fun .def_1485 () Bool (or param_e08 .def_1484))
(define-fun .def_1481 () Bool (= call__DRAGON_.ite18 call__DRAGON_.ite15))
(define-fun .def_1482 () Bool (or .def_1470 .def_1481))
(define-fun .def_1477 () Bool (= call__DRAGON_.ite7 call__DRAGON_.ite8))
(define-fun .def_1478 () Bool (or param_e08 .def_1477))
(define-fun .def_1474 () Bool (= call__DRAGON_.ite5 call__DRAGON_.ite8))
(define-fun .def_1475 () Bool (or .def_1470 .def_1474))
(define-fun .def_1469 () Bool (= call__DRAGON_.ite58 call__DRAGON_.ite49))
(define-fun .def_1471 () Bool (or .def_1469 .def_1470))
(define-fun .def_1465 () Bool (= call__DRAGON_.ite58 call__DRAGON_.ite57))
(define-fun .def_1467 () Bool (or .def_1465 param_e08))
(define-fun .def_1472 () Bool (and .def_1467 .def_1471))
(define-fun .def_1476 () Bool (and .def_1472 .def_1475))
(define-fun .def_1479 () Bool (and .def_1476 .def_1478))
(define-fun .def_1483 () Bool (and .def_1479 .def_1482))
(define-fun .def_1486 () Bool (and .def_1483 .def_1485))
(define-fun .def_1489 () Bool (and .def_1486 .def_1488))
(define-fun .def_1492 () Bool (and .def_1489 .def_1491))
(define-fun .def_1495 () Bool (and .def_1492 .def_1494))
(define-fun .def_1498 () Bool (and .def_1495 .def_1497))
(define-fun .def_1460 () Bool (= call__DRAGON_.ite59 call__DRAGON_.ite58))
(define-fun .def_1461 () Bool (or param_e07 .def_1460))
(define-fun .def_1456 () Bool (= call__DRAGON_.ite48 call__DRAGON_.ite59))
(define-fun .def_1457 () Bool (or .def_1451 .def_1456))
(define-fun .def_1450 () Bool (= call__DRAGON_.ite41 call__DRAGON_.ite36))
(define-fun .def_1452 () Bool (or .def_1450 .def_1451))
(define-fun .def_1446 () Bool (= call__DRAGON_.ite41 call__DRAGON_.ite40))
(define-fun .def_1448 () Bool (or .def_1446 param_e07))
(define-fun .def_1453 () Bool (and .def_1448 .def_1452))
(define-fun .def_1458 () Bool (and .def_1453 .def_1457))
(define-fun .def_1462 () Bool (and .def_1458 .def_1461))
(define-fun .def_1441 () Bool (= call__DRAGON_.ite19 call__DRAGON_.ite20))
(define-fun .def_1442 () Bool (or param_e05 .def_1441))
(define-fun .def_1438 () Bool (= call__DRAGON_.ite13 call__DRAGON_.ite20))
(define-fun .def_1439 () Bool (or .def_1434 .def_1438))
(define-fun .def_1433 () Bool (= call__DRAGON_.ite42 call__DRAGON_.ite35))
(define-fun .def_1435 () Bool (or .def_1433 .def_1434))
(define-fun .def_1429 () Bool (= call__DRAGON_.ite41 call__DRAGON_.ite42))
(define-fun .def_1431 () Bool (or .def_1429 param_e05))
(define-fun .def_1436 () Bool (and .def_1431 .def_1435))
(define-fun .def_1440 () Bool (and .def_1436 .def_1439))
(define-fun .def_1443 () Bool (and .def_1440 .def_1442))
(define-fun .def_1424 () Bool (= call__DRAGON_.ite29 call__DRAGON_.ite28))
(define-fun .def_1425 () Bool (or param_e06 .def_1424))
(define-fun .def_1420 () Bool (= call__DRAGON_.ite24 call__DRAGON_.ite29))
(define-fun .def_1421 () Bool (or .def_1416 .def_1420))
(define-fun .def_1415 () Bool (= call__DRAGON_.ite19 call__DRAGON_.ite14))
(define-fun .def_1417 () Bool (or .def_1415 .def_1416))
(define-fun .def_1411 () Bool (= call__DRAGON_.ite19 call__DRAGON_.ite18))
(define-fun .def_1413 () Bool (or .def_1411 param_e06))
(define-fun .def_1418 () Bool (and .def_1413 .def_1417))
(define-fun .def_1422 () Bool (and .def_1418 .def_1421))
(define-fun .def_1426 () Bool (and .def_1422 .def_1425))
(define-fun .def_1444 () Bool (and .def_1426 .def_1443))
(define-fun .def_1463 () Bool (and .def_1444 .def_1462))
(define-fun .def_1499 () Bool (and .def_1463 .def_1498))
(define-fun .def_1528 () Bool (and .def_1499 .def_1527))
(define-fun .def_1531 () Bool (and .def_1528 .def_1530))
(define-fun .def_1534 () Bool (and .def_1531 .def_1533))
(define-fun .def_1537 () Bool (and .def_1534 .def_1536))
(define-fun .def_1540 () Bool (and .def_1537 .def_1539))
(define-fun .def_1543 () Bool (and .def_1540 .def_1542))
(define-fun .def_1547 () Bool (and .def_1543 .def_1546))
(define-fun .def_1550 () Bool (and .def_1547 .def_1549))
(define-fun .def_1558 () Bool (and .def_1550 .def_1557))
(define-fun .def_1566 () Bool (and .def_1558 .def_1565))
(define-fun .def_1573 () Bool (and .def_1566 .def_1572))
(define-fun .def_1593 () Bool (and .def_1573 .def_1592))
(define-fun .def_1634 () Bool (and .def_1593 .def_1633))
(define-fun .def_1651 () Bool (and .def_1634 .def_1650))
(define-fun .def_1666 () Bool (and .def_1651 .def_1665))
(define-fun .def_1676 () Bool (and .def_1666 .def_1675))
(define-fun .def_1678 () Bool (and .def_1676 .def_1677))
(define-fun .def_1680 () Bool (and .def_1678 .def_1679))
(define-fun .def_1682 () Bool (and .def_1680 .def_1681))
(define-fun .def_1684 () Bool (and .def_1682 .def_1683))
(define-fun .def_1686 () Bool (and .def_1684 .def_1685))
(define-fun .def_1688 () Bool (and .def_1686 .def_1687))
(define-fun .def_1790 () Bool (and .def_1688 .def_1789))
(define-fun .def_1792 () Bool (and .def_1790 .def_1791))
(define-fun .def_1794 () Bool (and .def_1792 .def_1793))
(define-fun .def_1407 () Bool (= param_init_invalid call_First.flby))
(define-fun .def_1399 () Bool (<= param_init_invalid 0))
(define-fun .def_1400 () Bool (not .def_1399))
(define-fun .def_1402 () Bool (and .def_1400 call_excludes12.excludes))
(define-fun .def_1404 () Bool (= .def_1402 call_Sofar.flby))
(define-fun .def_1397 () Bool (= call__DRAGON_.flby4 0))
(define-fun .def_1394 () Bool (= call__DRAGON_.flby3 0))
(define-fun .def_1391 () Bool (= call__DRAGON_.flby2 0))
(define-fun .def_1388 () Bool (= param_init_invalid call__DRAGON_.flby))
(define-fun .def_1382 () Bool (= call__DRAGON_.ite37 0))
(define-fun .def_1375 () Bool (not call__DRAGON_.g08))
(define-fun .def_1383 () Bool (or .def_1375 .def_1382))
(define-fun .def_1378 () Bool (= call__DRAGON_.ite5 0))
(define-fun .def_1379 () Bool (or .def_1375 .def_1378))
(define-fun .def_1373 () Bool (= call__DRAGON_.ite25 1))
(define-fun .def_1376 () Bool (or .def_1373 .def_1375))
(define-fun .def_1380 () Bool (and .def_1376 .def_1379))
(define-fun .def_1384 () Bool (and .def_1380 .def_1383))
(define-fun .def_1369 () Bool (= call__DRAGON_.ite24 1))
(define-fun .def_1367 () Bool (not call__DRAGON_.g06))
(define-fun .def_1370 () Bool (or .def_1367 .def_1369))
(define-fun .def_1363 () Bool (= call__DRAGON_.ite13 0))
(define-fun .def_1361 () Bool (not call__DRAGON_.g05))
(define-fun .def_1364 () Bool (or .def_1361 .def_1363))
(define-fun .def_1357 () Bool (= call__DRAGON_.ite23 0))
(define-fun .def_1355 () Bool (not call__DRAGON_.g04))
(define-fun .def_1358 () Bool (or .def_1355 .def_1357))
(define-fun .def_1350 () Bool (= call__DRAGON_.ite3 0))
(define-fun .def_1347 () Bool (not call__DRAGON_.g02))
(define-fun .def_1351 () Bool (or .def_1347 .def_1350))
(define-fun .def_1345 () Bool (= call__DRAGON_.ite32 0))
(define-fun .def_1348 () Bool (or .def_1345 .def_1347))
(define-fun .def_1352 () Bool (and .def_1348 .def_1351))
(define-fun .def_1342 () Bool (= call__DRAGON_.flby6 call__DRAGON_.mem_init))
(define-fun .def_1338 () Bool (= call__DRAGON_.flby5 0))
(define-fun .def_1333 () Bool (= call__DRAGON_.ite53 call__DRAGON_.ite54))
(define-fun .def_1334 () Bool (or .def_1329 .def_1333))
(define-fun .def_1327 () Bool (= call__DRAGON_.ite6 call__DRAGON_.ite7))
(define-fun .def_1330 () Bool (or .def_1327 .def_1329))
(define-fun .def_1335 () Bool (and .def_1330 .def_1334))
(define-fun .def_1320 () Bool (= call__DRAGON_.ite26 call__DRAGON_.ite27))
(define-fun .def_1323 () Bool (or .def_1320 .def_1322))
(define-fun .def_1313 () Bool (= call__DRAGON_.ite16 call__DRAGON_.ite17))
(define-fun .def_1316 () Bool (or .def_1313 .def_1315))
(define-fun .def_1307 () Bool (= call__DRAGON_.ite38 call__DRAGON_.ite39))
(define-fun .def_1310 () Bool (or .def_1307 .def_1309))
(define-fun .def_1317 () Bool (and .def_1310 .def_1316))
(define-fun .def_1324 () Bool (and .def_1317 .def_1323))
(define-fun .def_1336 () Bool (and .def_1324 .def_1335))
(define-fun .def_1339 () Bool (and .def_1336 .def_1338))
(define-fun .def_1343 () Bool (and .def_1339 .def_1342))
(define-fun .def_1353 () Bool (and .def_1343 .def_1352))
(define-fun .def_1359 () Bool (and .def_1353 .def_1358))
(define-fun .def_1365 () Bool (and .def_1359 .def_1364))
(define-fun .def_1371 () Bool (and .def_1365 .def_1370))
(define-fun .def_1385 () Bool (and .def_1371 .def_1384))
(define-fun .def_1389 () Bool (and .def_1385 .def_1388))
(define-fun .def_1392 () Bool (and .def_1389 .def_1391))
(define-fun .def_1395 () Bool (and .def_1392 .def_1394))
(define-fun .def_1398 () Bool (and .def_1395 .def_1397))
(define-fun .def_1405 () Bool (and .def_1398 .def_1404))
(define-fun .def_1408 () Bool (and .def_1405 .def_1407))
(define-fun .def_1795 () Bool (and .def_1408 .def_1794))
(assert .def_1795)
